c *********************************
c * Circuit generated by BenCGen
c *
c * Parity_168
c *
c * Ports with 1 gate(s): 1
c * Ports with 2 gate(s): 168
c * Total gates: 169
c *********************************
p cnf 337 673
1 171 0
-1 -171 0
1 -170 0
171 -170 0
-1 -171 170 0
1 2 -172 0
-1 2 172 0
1 -2 172 0
-1 -2 -172 0
3 4 -173 0
-3 4 173 0
3 -4 173 0
-3 -4 -173 0
5 6 -174 0
-5 6 174 0
5 -6 174 0
-5 -6 -174 0
7 8 -175 0
-7 8 175 0
7 -8 175 0
-7 -8 -175 0
9 10 -176 0
-9 10 176 0
9 -10 176 0
-9 -10 -176 0
11 12 -177 0
-11 12 177 0
11 -12 177 0
-11 -12 -177 0
13 14 -178 0
-13 14 178 0
13 -14 178 0
-13 -14 -178 0
15 16 -179 0
-15 16 179 0
15 -16 179 0
-15 -16 -179 0
17 18 -180 0
-17 18 180 0
17 -18 180 0
-17 -18 -180 0
19 20 -181 0
-19 20 181 0
19 -20 181 0
-19 -20 -181 0
21 22 -182 0
-21 22 182 0
21 -22 182 0
-21 -22 -182 0
23 24 -183 0
-23 24 183 0
23 -24 183 0
-23 -24 -183 0
25 26 -184 0
-25 26 184 0
25 -26 184 0
-25 -26 -184 0
27 28 -185 0
-27 28 185 0
27 -28 185 0
-27 -28 -185 0
29 30 -186 0
-29 30 186 0
29 -30 186 0
-29 -30 -186 0
31 32 -187 0
-31 32 187 0
31 -32 187 0
-31 -32 -187 0
33 34 -188 0
-33 34 188 0
33 -34 188 0
-33 -34 -188 0
35 36 -189 0
-35 36 189 0
35 -36 189 0
-35 -36 -189 0
37 38 -190 0
-37 38 190 0
37 -38 190 0
-37 -38 -190 0
39 40 -191 0
-39 40 191 0
39 -40 191 0
-39 -40 -191 0
41 42 -192 0
-41 42 192 0
41 -42 192 0
-41 -42 -192 0
43 44 -193 0
-43 44 193 0
43 -44 193 0
-43 -44 -193 0
45 46 -194 0
-45 46 194 0
45 -46 194 0
-45 -46 -194 0
47 48 -195 0
-47 48 195 0
47 -48 195 0
-47 -48 -195 0
49 50 -196 0
-49 50 196 0
49 -50 196 0
-49 -50 -196 0
51 52 -197 0
-51 52 197 0
51 -52 197 0
-51 -52 -197 0
53 54 -198 0
-53 54 198 0
53 -54 198 0
-53 -54 -198 0
55 56 -199 0
-55 56 199 0
55 -56 199 0
-55 -56 -199 0
57 58 -200 0
-57 58 200 0
57 -58 200 0
-57 -58 -200 0
59 60 -201 0
-59 60 201 0
59 -60 201 0
-59 -60 -201 0
61 62 -202 0
-61 62 202 0
61 -62 202 0
-61 -62 -202 0
63 64 -203 0
-63 64 203 0
63 -64 203 0
-63 -64 -203 0
65 66 -204 0
-65 66 204 0
65 -66 204 0
-65 -66 -204 0
67 68 -205 0
-67 68 205 0
67 -68 205 0
-67 -68 -205 0
69 70 -206 0
-69 70 206 0
69 -70 206 0
-69 -70 -206 0
71 72 -207 0
-71 72 207 0
71 -72 207 0
-71 -72 -207 0
73 74 -208 0
-73 74 208 0
73 -74 208 0
-73 -74 -208 0
75 76 -209 0
-75 76 209 0
75 -76 209 0
-75 -76 -209 0
77 78 -210 0
-77 78 210 0
77 -78 210 0
-77 -78 -210 0
79 80 -211 0
-79 80 211 0
79 -80 211 0
-79 -80 -211 0
81 82 -212 0
-81 82 212 0
81 -82 212 0
-81 -82 -212 0
83 84 -213 0
-83 84 213 0
83 -84 213 0
-83 -84 -213 0
85 86 -214 0
-85 86 214 0
85 -86 214 0
-85 -86 -214 0
87 88 -215 0
-87 88 215 0
87 -88 215 0
-87 -88 -215 0
89 90 -216 0
-89 90 216 0
89 -90 216 0
-89 -90 -216 0
91 92 -217 0
-91 92 217 0
91 -92 217 0
-91 -92 -217 0
93 94 -218 0
-93 94 218 0
93 -94 218 0
-93 -94 -218 0
95 96 -219 0
-95 96 219 0
95 -96 219 0
-95 -96 -219 0
97 98 -220 0
-97 98 220 0
97 -98 220 0
-97 -98 -220 0
99 100 -221 0
-99 100 221 0
99 -100 221 0
-99 -100 -221 0
101 102 -222 0
-101 102 222 0
101 -102 222 0
-101 -102 -222 0
103 104 -223 0
-103 104 223 0
103 -104 223 0
-103 -104 -223 0
105 106 -224 0
-105 106 224 0
105 -106 224 0
-105 -106 -224 0
107 108 -225 0
-107 108 225 0
107 -108 225 0
-107 -108 -225 0
109 110 -226 0
-109 110 226 0
109 -110 226 0
-109 -110 -226 0
111 112 -227 0
-111 112 227 0
111 -112 227 0
-111 -112 -227 0
113 114 -228 0
-113 114 228 0
113 -114 228 0
-113 -114 -228 0
115 116 -229 0
-115 116 229 0
115 -116 229 0
-115 -116 -229 0
117 118 -230 0
-117 118 230 0
117 -118 230 0
-117 -118 -230 0
119 120 -231 0
-119 120 231 0
119 -120 231 0
-119 -120 -231 0
121 122 -232 0
-121 122 232 0
121 -122 232 0
-121 -122 -232 0
123 124 -233 0
-123 124 233 0
123 -124 233 0
-123 -124 -233 0
125 126 -234 0
-125 126 234 0
125 -126 234 0
-125 -126 -234 0
127 128 -235 0
-127 128 235 0
127 -128 235 0
-127 -128 -235 0
129 130 -236 0
-129 130 236 0
129 -130 236 0
-129 -130 -236 0
131 132 -237 0
-131 132 237 0
131 -132 237 0
-131 -132 -237 0
133 134 -238 0
-133 134 238 0
133 -134 238 0
-133 -134 -238 0
135 136 -239 0
-135 136 239 0
135 -136 239 0
-135 -136 -239 0
137 138 -240 0
-137 138 240 0
137 -138 240 0
-137 -138 -240 0
139 140 -241 0
-139 140 241 0
139 -140 241 0
-139 -140 -241 0
141 142 -242 0
-141 142 242 0
141 -142 242 0
-141 -142 -242 0
143 144 -243 0
-143 144 243 0
143 -144 243 0
-143 -144 -243 0
145 146 -244 0
-145 146 244 0
145 -146 244 0
-145 -146 -244 0
147 148 -245 0
-147 148 245 0
147 -148 245 0
-147 -148 -245 0
149 150 -246 0
-149 150 246 0
149 -150 246 0
-149 -150 -246 0
151 152 -247 0
-151 152 247 0
151 -152 247 0
-151 -152 -247 0
153 154 -248 0
-153 154 248 0
153 -154 248 0
-153 -154 -248 0
155 156 -249 0
-155 156 249 0
155 -156 249 0
-155 -156 -249 0
157 158 -250 0
-157 158 250 0
157 -158 250 0
-157 -158 -250 0
159 160 -251 0
-159 160 251 0
159 -160 251 0
-159 -160 -251 0
161 162 -252 0
-161 162 252 0
161 -162 252 0
-161 -162 -252 0
163 164 -253 0
-163 164 253 0
163 -164 253 0
-163 -164 -253 0
165 166 -254 0
-165 166 254 0
165 -166 254 0
-165 -166 -254 0
167 168 -255 0
-167 168 255 0
167 -168 255 0
-167 -168 -255 0
172 173 -256 0
-172 173 256 0
172 -173 256 0
-172 -173 -256 0
174 175 -257 0
-174 175 257 0
174 -175 257 0
-174 -175 -257 0
176 177 -258 0
-176 177 258 0
176 -177 258 0
-176 -177 -258 0
178 179 -259 0
-178 179 259 0
178 -179 259 0
-178 -179 -259 0
180 181 -260 0
-180 181 260 0
180 -181 260 0
-180 -181 -260 0
182 183 -261 0
-182 183 261 0
182 -183 261 0
-182 -183 -261 0
184 185 -262 0
-184 185 262 0
184 -185 262 0
-184 -185 -262 0
186 187 -263 0
-186 187 263 0
186 -187 263 0
-186 -187 -263 0
188 189 -264 0
-188 189 264 0
188 -189 264 0
-188 -189 -264 0
190 191 -265 0
-190 191 265 0
190 -191 265 0
-190 -191 -265 0
192 193 -266 0
-192 193 266 0
192 -193 266 0
-192 -193 -266 0
194 195 -267 0
-194 195 267 0
194 -195 267 0
-194 -195 -267 0
196 197 -268 0
-196 197 268 0
196 -197 268 0
-196 -197 -268 0
198 199 -269 0
-198 199 269 0
198 -199 269 0
-198 -199 -269 0
200 201 -270 0
-200 201 270 0
200 -201 270 0
-200 -201 -270 0
202 203 -271 0
-202 203 271 0
202 -203 271 0
-202 -203 -271 0
204 205 -272 0
-204 205 272 0
204 -205 272 0
-204 -205 -272 0
206 207 -273 0
-206 207 273 0
206 -207 273 0
-206 -207 -273 0
208 209 -274 0
-208 209 274 0
208 -209 274 0
-208 -209 -274 0
210 211 -275 0
-210 211 275 0
210 -211 275 0
-210 -211 -275 0
212 213 -276 0
-212 213 276 0
212 -213 276 0
-212 -213 -276 0
214 215 -277 0
-214 215 277 0
214 -215 277 0
-214 -215 -277 0
216 217 -278 0
-216 217 278 0
216 -217 278 0
-216 -217 -278 0
218 219 -279 0
-218 219 279 0
218 -219 279 0
-218 -219 -279 0
220 221 -280 0
-220 221 280 0
220 -221 280 0
-220 -221 -280 0
222 223 -281 0
-222 223 281 0
222 -223 281 0
-222 -223 -281 0
224 225 -282 0
-224 225 282 0
224 -225 282 0
-224 -225 -282 0
226 227 -283 0
-226 227 283 0
226 -227 283 0
-226 -227 -283 0
228 229 -284 0
-228 229 284 0
228 -229 284 0
-228 -229 -284 0
230 231 -285 0
-230 231 285 0
230 -231 285 0
-230 -231 -285 0
232 233 -286 0
-232 233 286 0
232 -233 286 0
-232 -233 -286 0
234 235 -287 0
-234 235 287 0
234 -235 287 0
-234 -235 -287 0
236 237 -288 0
-236 237 288 0
236 -237 288 0
-236 -237 -288 0
238 239 -289 0
-238 239 289 0
238 -239 289 0
-238 -239 -289 0
240 241 -290 0
-240 241 290 0
240 -241 290 0
-240 -241 -290 0
242 243 -291 0
-242 243 291 0
242 -243 291 0
-242 -243 -291 0
244 245 -292 0
-244 245 292 0
244 -245 292 0
-244 -245 -292 0
246 247 -293 0
-246 247 293 0
246 -247 293 0
-246 -247 -293 0
248 249 -294 0
-248 249 294 0
248 -249 294 0
-248 -249 -294 0
250 251 -295 0
-250 251 295 0
250 -251 295 0
-250 -251 -295 0
252 253 -296 0
-252 253 296 0
252 -253 296 0
-252 -253 -296 0
254 255 -297 0
-254 255 297 0
254 -255 297 0
-254 -255 -297 0
256 257 -298 0
-256 257 298 0
256 -257 298 0
-256 -257 -298 0
258 259 -299 0
-258 259 299 0
258 -259 299 0
-258 -259 -299 0
260 261 -300 0
-260 261 300 0
260 -261 300 0
-260 -261 -300 0
262 263 -301 0
-262 263 301 0
262 -263 301 0
-262 -263 -301 0
264 265 -302 0
-264 265 302 0
264 -265 302 0
-264 -265 -302 0
266 267 -303 0
-266 267 303 0
266 -267 303 0
-266 -267 -303 0
268 269 -304 0
-268 269 304 0
268 -269 304 0
-268 -269 -304 0
270 271 -305 0
-270 271 305 0
270 -271 305 0
-270 -271 -305 0
272 273 -306 0
-272 273 306 0
272 -273 306 0
-272 -273 -306 0
274 275 -307 0
-274 275 307 0
274 -275 307 0
-274 -275 -307 0
276 277 -308 0
-276 277 308 0
276 -277 308 0
-276 -277 -308 0
278 279 -309 0
-278 279 309 0
278 -279 309 0
-278 -279 -309 0
280 281 -310 0
-280 281 310 0
280 -281 310 0
-280 -281 -310 0
282 283 -311 0
-282 283 311 0
282 -283 311 0
-282 -283 -311 0
284 285 -312 0
-284 285 312 0
284 -285 312 0
-284 -285 -312 0
286 287 -313 0
-286 287 313 0
286 -287 313 0
-286 -287 -313 0
288 289 -314 0
-288 289 314 0
288 -289 314 0
-288 -289 -314 0
290 291 -315 0
-290 291 315 0
290 -291 315 0
-290 -291 -315 0
292 293 -316 0
-292 293 316 0
292 -293 316 0
-292 -293 -316 0
294 295 -317 0
-294 295 317 0
294 -295 317 0
-294 -295 -317 0
296 297 -318 0
-296 297 318 0
296 -297 318 0
-296 -297 -318 0
298 299 -319 0
-298 299 319 0
298 -299 319 0
-298 -299 -319 0
300 301 -320 0
-300 301 320 0
300 -301 320 0
-300 -301 -320 0
302 303 -321 0
-302 303 321 0
302 -303 321 0
-302 -303 -321 0
304 305 -322 0
-304 305 322 0
304 -305 322 0
-304 -305 -322 0
306 307 -323 0
-306 307 323 0
306 -307 323 0
-306 -307 -323 0
308 309 -324 0
-308 309 324 0
308 -309 324 0
-308 -309 -324 0
310 311 -325 0
-310 311 325 0
310 -311 325 0
-310 -311 -325 0
312 313 -326 0
-312 313 326 0
312 -313 326 0
-312 -313 -326 0
314 315 -327 0
-314 315 327 0
314 -315 327 0
-314 -315 -327 0
316 317 -328 0
-316 317 328 0
316 -317 328 0
-316 -317 -328 0
319 320 -329 0
-319 320 329 0
319 -320 329 0
-319 -320 -329 0
321 322 -330 0
-321 322 330 0
321 -322 330 0
-321 -322 -330 0
323 324 -331 0
-323 324 331 0
323 -324 331 0
-323 -324 -331 0
325 326 -332 0
-325 326 332 0
325 -326 332 0
-325 -326 -332 0
327 328 -333 0
-327 328 333 0
327 -328 333 0
-327 -328 -333 0
329 330 -334 0
-329 330 334 0
329 -330 334 0
-329 -330 -334 0
331 332 -335 0
-331 332 335 0
331 -332 335 0
-331 -332 -335 0
333 318 -336 0
-333 318 336 0
333 -318 336 0
-333 -318 -336 0
334 335 -337 0
-334 335 337 0
334 -335 337 0
-334 -335 -337 0
337 336 -169 0
-337 336 169 0
337 -336 169 0
-337 -336 -169 0
